c ---- [ banner ] ------------------------------------------------------------
c
c KISSAT SAT Solver
c Copyright (c) 2019-2021 Armin Biere JKU Linz
c 
c Version 2.0.1 02cd69626a53e93e09286b1978ccb5d6bec58b8e
c Apple clang version 13.1.6 (clang-1316.0.21.2) -W -Wall -O3 -DNDEBUG
c Thu Mar 31 15:34:51 EDT 2022 Darwin Randals-Macbook-Pro.local 21.2.0 arm64
c
c ---- [ proving ] -----------------------------------------------------------
c
c opened and writing proof to DRAT file:
c
c   chew-36-123458.drat
c
c ---- [ parsing ] -----------------------------------------------------------
c
c opened and reading DIMACS file:
c
c   chew-36-123458.cnf
c
c parsed 'p cnf 102 272' header
c closing input after reading 3366 bytes (3 KB)
c finished parsing after 0.00 seconds
c
c ---- [ options ] -----------------------------------------------------------
c
c --stable=0                       (different from default '1')
c
c ---- [ solving ] -----------------------------------------------------------
c
c  seconds switched rate      trail   variables
c         MB reductions conflicts glue    remaining
c          level restarts redundant irredundant
c
c *  0.00  0 0 0 0  0 0   0   0 0% 0 272 102 99%
c {  0.00  0 0 0 0  0 0   0   0 0% 0 272 102 99%
c -  0.00  0 31 0 1  0 1 300  41 90% 23 272 102 99%
c -  0.01  0 29 0 2  0 1 1302 150 77% 19 272 102 99%
c -  0.02  0 27 0 3  0 1 2717 250 69% 16 272 102 99%
c e  0.02  0 27 0 3  0 1 3002 383 69% 16 264 68 66%
c e  0.02  0 27 0 3  0 1 3002 383 69% 16 264 67 65%
c -  0.03  0 27 0 4 24 2 4450 216 72% 15 264 67 65%
c ^  0.04  0 26 0 4 24 1 5973 959 70% 13 264 67 65%
c -  0.04  0 26 0 5 24 1 6452 659 69% 13 264 67 65%
c -  0.05  0 24 0 6 24 1 8688 838 64% 12 264 67 65%
c -  0.07  0 23 0 7 24 1 11137 967 61% 12 264 67 65%
c ^  0.07  0 23 0 7 24 1 12415 1439 61% 12 264 67 65%
c -  0.08  0 22 0 8 24 1 13783 1062 59% 12 264 67 65%
c -  0.10  0 22 0 9 526 2 16612 1067 56% 12 264 67 65%
c -  0.11  0 21 0 10 606 2 19612 1539 56% 12 264 67 65%
c -  0.13  0 21 0 11 606 2 22774 1586 55% 11 264 67 65%
c ^  0.13  0 21 0 11 606 2 22791 1593 55% 11 264 67 65%
c -  0.15  0 21 0 12 606 2 26093 1348 54% 11 264 67 65%
c -  0.17  0 20 0 13 606 2 29559 1269 53% 11 264 67 65%
c
c  seconds  switched   rate          trail   variables
c         MB  reductions conflicts       glue    remaining
c          level  restarts    redundant  irredundant
c
c u  0.18  0 20 0 13 606 2 32459 2371 51% 11 264 67 65%
c -  0.19  0 20 0 14 606 2 33165 1237 51% 11 264 67 65%
c -  0.20  0 20 0 15 671 2 36909 1181 51% 11 264 67 65%
c e  0.21  0 20 0 15 671 2 37536 1431 52% 11 272 65 63%
c ^  0.21  0 20 0 15 671 2 37536 1431 52% 11 272 65 63%
c -  0.23  0 20 0 16 675 2 40781 966 52% 11 272 65 63%
c -  0.25  0 19 0 17 1301 2 44781 1134 51% 11 272 65 63%
c u  0.26  0 19 0 17 1446 2 48644 2674 50% 11 272 65 63%
c -  0.27  0 19 0 18 1446 2 48907 1431 50% 11 272 65 63%
c -  0.29  0 19 0 19 1446 2 53150 1816 49% 10 272 65 63%
c ^  0.31  0 18 0 19 1446 2 57252 3312 48% 10 272 65 63%
c -  0.31  0 18 0 20 1446 2 57509 2220 48% 10 272 65 63%
c u  0.32  0 18 0 20 1446 2 58168 2512 48% 10 272 65 63%
c -  0.34  0 18 0 21 1446 2 61981 2371 48% 10 272 65 63%
c -  0.36  0 17 0 22 1446 2 66563 2094 47% 10 272 65 63%
c u  0.37  0 17 0 22 1446 2 68647 3017 47% 10 272 65 63%
c -  0.39  0 17 0 23 1446 2 71253 2511 47% 10 272 65 63%
c -  0.41  0 17 0 24 1446 2 76048 2648 46% 9 272 65 63%
c u  0.44  0 17 0 24 1446 2 80155 3938 45% 9 272 65 63%
c -  0.44  0 17 0 25 1446 2 80948 2638 46% 9 272 65 63%
c
c  seconds  switched    rate          trail  variables
c         MB  reductions  conflicts      glue    remaining
c          level   restarts    redundant irredundant
c
c e  0.45  0 17 0 25 1446 2 82161 3213 46% 9 496 51 50%
c !  0.45  0 17 0 25 1446 2 82161 3213 46% 9 496 51 50%
c -  0.48  0 17 0 26 2536 2 85950 1069 47% 9 496 51 50%
c -  0.50  0 17 0 27 4023 3 91049 1282 47% 10 496 51 50%
c u  0.51  0 18 0 27 4484 3 92585 2001 48% 10 496 51 50%
c v  0.51  0 18 0 27 4484 3 92585 2000 48% 10 496 51 50%
c -  0.54  0 18 0 28 5556 3 96245 1393 48% 10 496 51 50%
c -  0.57  0 18 0 29 7085 4 101536 1472 49% 10 496 51 50%
c -  0.61  0 19 0 30 8647 4 106923 1508 50% 10 496 51 50%
c u  0.62  0 19 0 30 9236 4 108937 2406 50% 10 496 51 50%
c -  0.64  0 19 0 31 10126 4 112402 1567 50% 10 496 51 50%
c -  0.68  0 19 0 32 11081 5 117970 1595 51% 10 496 51 50%
c -  0.71  0 19 0 33 12043 5 123626 1559 51% 11 496 51 50%
c u  0.73  0 19 0 33 12043 5 126525 2563 51% 10 496 51 50%
c -  0.74  0 19 0 34 12043 5 129370 1840 52% 10 496 51 50%
c -  0.77  0 19 0 35 12043 4 135201 2397 52% 10 496 51 50%
c -  0.80  0 19 0 36 12043 4 141117 2759 52% 10 496 51 50%
c u  0.83  0 19 0 36 12043 4 145395 4019 52% 10 496 51 50%
c -  0.84  0 19 0 37 12211 4 147117 2851 52% 10 496 51 50%
c -  0.88  0 19 0 38 13166 4 153199 2770 52% 10 496 51 50%
c
c  seconds  switched     rate           trail   variables
c         MB  reductions   conflicts        glue    remaining
c          level   restarts      redundant  irredundant
c
c -  0.92  0 19 0 39 14236 4 159363 2413 53% 10 496 51 50%
c u  0.96  0 19 0 39 14968 4 165498 4543 53% 10 496 51 50%
c -  0.96  0 19 0 40 14968 4 165607 2335 53% 10 496 51 50%
c -  1.00  0 19 0 41 14968 4 171933 2796 53% 10 496 51 50%
c -  1.03  0 19 0 42 14968 4 178337 3206 52% 10 496 51 50%
c -  1.07  0 18 0 43 14968 4 184819 3724 52% 10 496 51 50%
c u  1.08  0 18 0 43 14968 4 186905 4223 52% 10 496 51 50%
c v  1.09  0 18 0 43 14968 4 186905 4205 52% 10 496 51 50%
c -  1.11  0 18 0 44 15577 4 191376 3350 52% 10 496 51 50%
c -  1.16  0 19 0 45 16732 4 198010 2772 52% 10 496 51 50%
c -  1.20  0 19 0 46 17789 4 204718 2544 52% 10 496 51 50%
c u  1.22  0 19 0 46 17818 4 209664 4178 52% 10 496 51 50%
c v  1.23  0 19 0 46 17818 4 209664 4172 52% 10 496 51 50%
c -  1.24  0 19 0 47 17818 4 211501 2753 52% 10 496 51 50%
c -  1.28  0 19 0 48 18169 4 218357 3207 52% 10 496 51 50%
c -  1.33  0 19 0 49 19377 4 225285 3074 52% 11 496 51 50%
c -  1.37  0 19 0 50 20602 4 232286 2570 52% 11 496 51 50%
c u  1.38  0 19 0 50 20612 4 233653 3173 53% 11 496 51 50%
c -  1.42  0 19 0 51 21399 4 239358 2484 53% 11 496 51 50%
c -  1.46  0 19 0 52 21411 4 246501 2507 53% 11 496 51 50%
c
c  seconds  switched     rate           trail   variables
c         MB  reductions   conflicts        glue    remaining
c          level   restarts      redundant  irredundant
c
c -  1.50  0 19 0 53 21411 4 253712 2221 53% 11 496 51 50%
c u  1.53  0 19 0 53 21981 4 258962 4527 54% 11 496 51 50%
c -  1.55  0 19 0 54 22335 4 260993 2534 54% 11 496 51 50%
c -  1.59  0 19 0 55 22980 4 268342 2823 54% 11 496 51 50%
c -  1.63  0 19 0 56 24049 4 275759 2838 53% 11 496 51 50%
c -  1.68  0 19 0 57 25174 4 283244 2996 53% 11 496 51 50%
c u  1.69  0 19 0 57 25174 4 285622 3999 53% 11 496 51 50%
c -  1.72  0 19 0 58 25174 4 290794 3751 53% 11 496 51 50%
c -  1.77  0 19 0 59 25174 3 298410 4642 53% 11 496 51 50%
c -  1.81  0 18 0 60 25174 3 306093 5066 53% 11 496 51 50%
c -  1.87  0 18 0 61 25174 3 313840 5345 52% 10 496 51 50%
c -  1.92  0 18 0 62 26156 3 321653 4487 53% 11 496 51 50%
c -  1.98  0 18 0 63 27384 3 329529 3463 53% 11 496 51 50%
c -  2.03  0 19 0 64 28782 3 337467 3124 53% 11 496 51 50%
c u  2.06  0 19 0 64 28825 3 342967 4763 53% 11 496 51 50%
c v  2.06  0 19 0 64 28825 3 342967 4763 53% 11 496 51 50%
c -  2.08  0 18 0 65 28825 3 345467 2900 52% 11 496 51 50%
c -  2.12  0 19 0 66 29410 3 353529 2913 53% 11 496 51 50%
c -  2.16  0 18 0 67 29410 3 361654 3058 53% 11 496 51 50%
c -  2.21  0 18 0 68 29410 3 369840 3915 52% 11 496 51 50%
c
c  seconds  switched     rate           trail   variables
c         MB  reductions   conflicts        glue    remaining
c          level   restarts      redundant  irredundant
c
c u  2.23  0 18 0 68 29410 3 373736 5037 52% 10 496 51 50%
c v  2.23  0 18 0 68 29410 3 373739 5025 52% 10 496 51 50%
c -  2.26  0 18 0 69 29552 3 378087 4247 52% 10 496 51 50%
c -  2.30  0 18 0 70 31019 3 386395 3815 52% 11 496 51 50%
c -  2.35  0 18 0 71 31155 3 394761 4049 52% 10 496 51 50%
c -  2.41  0 17 0 72 31155 3 403188 4358 51% 10 496 51 50%
c u  2.43  0 17 0 72 31155 3 405862 4866 51% 10 496 51 50%
c v  2.43  0 17 0 72 31155 3 405867 4854 51% 10 496 51 50%
c -  2.47  0 17 0 73 31162 3 411674 5077 51% 10 496 51 50%
c -  2.52  0 17 0 74 31811 3 420219 5194 51% 10 496 51 50%
c -  2.58  0 17 0 75 33367 3 428821 4437 51% 10 496 51 50%
c -  2.63  0 18 0 76 34889 3 437483 3747 51% 11 496 51 50%
c u  2.64  0 18 0 76 34995 3 439402 4285 51% 11 496 51 50%
c v  2.65  0 18 0 76 34995 3 439405 4271 51% 11 496 51 50%
c -  2.69  0 18 0 77 36007 3 446201 3460 51% 11 496 51 50%
c -  2.75  0 18 0 78 37159 3 454976 3500 51% 11 496 51 50%
c -  2.80  0 18 0 79 37159 3 463809 3651 51% 11 496 51 50%
c -  2.85  0 17 0 80 37570 3 472697 3995 51% 11 496 51 50%
c u  2.87  0 17 0 80 37851 3 474348 4575 51% 11 496 51 50%
c v  2.87  0 17 0 80 37851 3 474350 4569 51% 11 496 51 50%
c
c  seconds  switched     rate           trail   variables
c         MB  reductions   conflicts        glue    remaining
c          level   restarts      redundant  irredundant
c
c -  2.92  0 18 0 81 39156 3 481643 3911 51% 11 496 51 50%
c -  2.98  0 18 0 82 40745 3 490643 3593 51% 11 496 51 50%
c -  3.03  0 18 0 83 42342 3 499700 3591 51% 11 496 51 50%
c -  3.09  0 18 0 84 43857 3 508812 3591 51% 11 496 51 50%
c u  3.11  0 18 0 84 43857 3 510720 4304 51% 11 496 51 50%
c v  3.11  0 18 0 84 43857 3 510726 4302 51% 11 496 51 50%
c -  3.15  0 18 0 85 44058 3 517978 4297 51% 11 496 51 50%
c -  3.21  0 18 0 86 45610 3 527197 4501 51% 11 496 51 50%
c -  3.27  0 18 0 87 45905 3 536472 4598 50% 11 496 51 50%
c -  3.33  0 18 0 88 47562 3 545801 4580 50% 11 496 51 50%
c u  3.35  0 18 0 88 47698 3 548484 5129 51% 11 496 51 50%
c v  3.35  0 18 0 88 47698 3 548487 5125 51% 11 496 51 50%
c -  3.39  0 18 0 89 47698 3 555181 4652 50% 11 496 51 50%
c -  3.45  0 18 0 90 49330 3 564614 4350 50% 11 496 51 50%
c -  3.51  0 18 0 91 50216 3 574102 4479 50% 11 496 51 50%
c -  3.57  0 18 0 92 51519 3 583641 4496 50% 11 496 51 50%
c u  3.60  0 18 0 92 51899 3 587767 6064 50% 11 496 51 50%
c v  3.60  0 18 0 92 51899 3 587770 6063 50% 11 496 51 50%
c -  3.64  0 18 0 93 52006 3 593232 4207 51% 11 496 51 50%
c -  3.69  0 18 0 94 52006 3 602875 4118 50% 11 496 51 50%
c
c  seconds  switched     rate           trail   variables
c         MB  reductions   conflicts        glue    remaining
c          level   restarts      redundant  irredundant
c
c -  3.74  0 18 0 95 52006 3 612572 4297 50% 11 496 51 50%
c -  3.80  0 17 0 96 52043 3 622319 4590 50% 11 496 51 50%
c u  3.84  0 17 0 96 52043 3 628476 6292 50% 11 496 51 50%
c v  3.84  0 17 0 96 52043 3 628476 6290 50% 11 496 51 50%
c -  3.87  0 17 0 97 52043 3 632117 5216 50% 11 496 51 50%
c -  3.93  0 17 0 98 52043 3 641966 5920 50% 11 496 51 50%
c -  4.01  0 16 0 99 52043 3 651866 5732 49% 10 496 51 50%
c -  4.07  0 16 0 100 52332 3 661815 5983 49% 10 496 51 50%
c u  4.12  0 16 0 100 53902 3 670555 9440 49% 10 496 51 50%
c v  4.13  0 16 0 100 53902 3 670555 9440 49% 10 496 51 50%
c -  4.15  0 16 0 101 54093 3 671815 5367 49% 10 496 51 50%
c -  4.21  0 16 0 102 54540 3 681864 5167 49% 10 496 51 50%
c -  4.27  0 16 0 103 55246 3 691964 5504 49% 10 496 51 50%
c -  4.33  0 16 0 104 55246 2 702112 5345 49% 10 496 51 50%
c -  4.40  0 16 0 105 55512 2 712313 5667 49% 10 496 51 50%
c u  4.42  0 16 0 105 55826 2 714561 5716 49% 10 496 51 50%
c v  4.42  0 16 0 105 55826 2 714565 5705 49% 10 496 51 50%
c -  4.49  0 16 0 106 57047 3 722559 4939 49% 10 496 51 50%
c -  4.55  0 16 0 107 57779 3 732854 4913 49% 10 496 51 50%
c -  4.62  0 16 0 108 58041 3 743198 5381 49% 10 496 51 50%
c
c  seconds  switched      rate           trail   variables
c         MB  reductions    conflicts        glue    remaining
c          level    restarts      redundant  irredundant
c
c -  4.69  0 16 0 109 59145 3 753592 5664 49% 10 496 51 50%
c u  4.73  0 16 0 109 59145 3 759630 7372 49% 10 496 51 50%
c -  4.77  0 16 0 110 59801 3 764032 5149 49% 10 496 51 50%
c -  4.84  0 16 0 111 60639 3 774521 5325 49% 10 496 51 50%
c -  4.91  0 16 0 112 61858 3 785056 5254 49% 10 496 51 50%
c -  4.98  0 16 0 113 61858 3 795640 5524 49% 10 496 51 50%
c u  5.07  0 15 0 113 61858 2 806614 6906 49% 10 496 51 50%
c v  5.07  0 15 0 113 61858 2 806615 6894 49% 10 496 51 50%
c -  5.08  0 15 0 114 61858 2 806615 4605 49% 10 496 51 50%
c -  5.15  0 16 0 115 63596 3 817294 5456 49% 10 496 51 50%
c -  5.23  0 16 0 116 64338 3 828018 5881 49% 10 496 51 50%
c -  5.29  0 15 0 117 64361 2 838789 6397 49% 10 496 51 50%
c -  5.37  0 15 0 118 64361 2 849606 7172 49% 10 496 51 50%
c u  5.41  0 15 0 118 64361 2 854792 8675 49% 10 496 51 50%
c v  5.41  0 15 0 118 64361 2 854793 8636 49% 10 496 51 50%
c -  5.46  0 15 0 119 64505 2 860468 7979 49% 10 496 51 50%
c -  5.54  0 15 0 120 65323 2 871377 7872 49% 10 496 51 50%
c -  5.63  0 15 0 121 65323 2 882331 7457 49% 10 496 51 50%
c -  5.72  0 14 0 122 65323 2 893332 8500 49% 9 496 51 50%
c u  5.82  0 14 0 122 65323 2 905191 8008 48% 9 496 51 50%
c
c  seconds  switched      rate           trail  variables
c         MB  reductions    conflicts       glue    remaining
c          level    restarts      redundant irredundant
c
c v  5.83  0 14 0 122 65323 2 905212 7986 48% 9 496 51 50%
c -  5.83  0 14 0 123 65323 2 905212 6583 48% 9 496 51 50%
c -  5.92  0 14 0 124 66543 2 916302 7827 49% 9 496 51 50%
c -  6.00  0 14 0 125 66699 2 927438 8181 49% 9 496 51 50%
c -  6.10  0 14 0 126 67386 2 938619 8699 49% 9 496 51 50%
c -  6.20  0 14 0 127 67386 2 949844 8616 49% 9 496 51 50%
c u  6.26  0 13 0 127 67386 2 956963 7870 49% 9 496 51 50%
c v  6.26  0 13 0 127 67386 2 956988 7780 49% 9 496 51 50%
c -  6.30  0 13 0 128 67610 2 961113 6653 49% 9 496 51 50%
c i  6.34  0 13 0 128 67610 2 966884 8506 49% 9 496 50 49%
c -  6.40  0 13 0 129 68644 2 972426 4798 49% 9 496 50 49%
c -  6.48  0 13 0 130 69927 2 983784 5796 49% 9 496 50 49%
c -  6.56  0 13 0 131 70421 2 995185 7065 48% 9 496 50 49%
c -  6.64  0 13 0 132 70825 2 1006630 7834 48% 9 496 50 49%
c u  6.67  0 13 0 132 70825 2 1010066 8176 48% 9 464 50 49%
c v  6.67  0 13 0 132 70825 2 1010078 8120 48% 9 464 50 49%
c w  6.67  0 13 0 132 70825 2 1010078 8120 48% 9 464 50 49%
c 2  6.67  0 13 0 132 70825 2 1010078 8120 48% 9 457 50 49%
c -  6.73  0 13 0 133 70979 2 1018120 8742 48% 9 457 50 49%
c -  6.82  0 13 0 134 71028 2 1029653 8841 48% 8 457 50 49%
c
c  seconds  switched      rate            trail  variables
c         MB  reductions     conflicts       glue    remaining
c          level    restarts       redundant irredundant
c
c -  6.92  0 13 0 135 71633 2 1041228 9917 47% 8 457 50 49%
c i  6.93  0 13 0 135 71633 2 1042789 10268 47% 8 457 49 48%
c -  7.03  0 12 0 136 72556 2 1052847 7136 47% 8 457 49 48%
c i  7.06  0 12 0 136 72556 2 1057205 7700 46% 8 457 48 47%
c i  7.09  0 12 0 136 72556 2 1060606 8368 46% 8 457 47 46%
c b  7.12  0 12 0 136 72556 2 1062902 4356 46% 8 369 46 45%
c t  7.12  0 12 0 136 72556 2 1062902 4355 46% 8 369 46 45%
c u  7.13  0 12 0 136 72556 2 1063300 2346 46% 8 369 46 45%
c v  7.13  0 12 0 136 72556 2 1063334 1880 46% 8 369 46 45%
c w  7.13  0 12 0 136 72556 2 1063334 1880 46% 8 353 46 45%
c s  7.13  0 12 0 136 72556 2 1063334 1839 46% 8 351 46 45%
c e  7.13  0 12 0 136 72556 2 1063334 1839 46% 8 367 45 44%
c i  7.14  0 12 0 136 72556 2 1063932 1937 46% 8 367 43 42%
c i  7.14  0 12 0 136 72556 2 1064262 1968 46% 8 367 42 41%
c -  7.14  0 12 0 137 72556 2 1064508 1006 46% 8 315 42 41%
c i  7.14  0 12 0 137 72556 2 1064647 1019 46% 8 315 41 40%
c i  7.14  0 12 0 137 72556 2 1064791 1050 45% 8 315 40 39%
c i  7.14  0 12 0 137 72556 2 1064878 1061 45% 8 315 39 38%
c i  7.14  0 12 0 137 72556 2 1064921 1063 45% 8 315 38 37%
c i  7.14  0 12 0 137 72556 2 1064942 1064 45% 8 315 37 36%
c
c  seconds  switched      rate            trail  variables
c         MB  reductions     conflicts       glue    remaining
c          level    restarts       redundant irredundant
c
c i  7.14  0 12 0 137 72556 2 1064953 1069 45% 8 315 36 35%
c i  7.14  0 12 0 137 72556 2 1064957 1070 45% 8 315 34 33%
c }  7.14  0 12 0 137 72556 2 1064964 1069 45% 8 315 29 28%
c 0  7.14  0 12 0 137 72556 2 1064964 1069 45% 8 315 29 28%
c
c ---- [ result ] ------------------------------------------------------------
c
s UNSATISFIABLE
c
c ---- [ profiling ] ---------------------------------------------------------
c
c           6.81   95.38 %  search
c           6.81   95.38 %  focused
c           0.79   11.11 %  reduce
c           0.33    4.62 %  simplify
c           0.32    4.45 %  probe
c           0.23    3.26 %  vivify
c           0.04    0.57 %  sweep
c           0.04    0.56 %  substitute
c           0.01    0.17 %  eliminate
c           0.00    0.03 %  transitive
c           0.00    0.01 %  failed
c           0.00    0.01 %  ternary
c           0.00    0.01 %  subsume
c           0.00    0.00 %  backbone
c           0.00    0.00 %  parse
c =============================================
c           7.14  100.00 %  total
c
c ---- [ statistics ] --------------------------------------------------------
c
c backbone_implied:                         1                1.00 per unit
c backbone_units:                           1                1 %  variables
c clauses_learned:                     674924               63 %  conflicts
c conflicts:                          1064964           149035.79 per second
c decisions:                          2080084                1.95 per conflict
c forward_strengthened:                    22                1 %  strengthened
c forward_subsumed:                         1                0 %  subsumed
c kitten_conflicts:                     10002                1.03 per solved
c kitten_decisions:                    263771               27.22 per solved
c kitten_propagations:                 359869               37.14 per solved
c kitten_sat:                            9552               99 %  solved
c kitten_solved:                         9690 
c kitten_ticks:                       2639961                7.34 per propagation
c kitten_unknown:                          48                0 %  solved
c kitten_unsat:                            90                1 %  solved
c literals_bumped:                   19220801               28.48 per clause
c literals_deduced:                  10383243               15.38 per clause
c literals_learned:                   8837379               13.09 per clause
c literals_minimized:                       0                0 %  deduced
c literals_minimize_shrunken:          134600                9 %  shrunken
c literals_shrunken:                  1545878               15 %  deduced
c propagations:                       4461179           624317    per second
c reductions:                             137             7773    interval
c restarts:                             72556               14.68 interval
c restarts_reused_trails:               49904               69 %  restarts
c strengthened:                          2971                3 %  checks
c subsumption_checks:                   95913 
c subsumed:                            285586              298 %  checks
c sweep:                                   44            24204    interval
c sweep_completed:                         13                3    sweeps
c sweep_equivalences:                       0                0    variables
c sweep_sat:                             9552               99 %  sweep_solved
c sweep_solved:                          9604               99 %  kitten_solved
c sweep_units:                              0                0 %  variables
c sweep_unsat:                              4                0 %  sweep_solved
c sweep_variables:                        582              565 %  variables
c
c ---- [ proof ] -------------------------------------------------------------
c
c proof_added:                         957242               50 %  per line
c proof_bytes:                       96083239               92 MB 
c proof_deleted:                       956108               50 %  per line
c
c ---- [ resources ] ---------------------------------------------------------
c
c maximum-resident-set-size:       9177137152 bytes       8752 MB
c process-time:                             7s               7.14 seconds
c
c ---- [ shutting down ] -----------------------------------------------------
c
c exit 20
-rw-r--r--  1 bryant  staff  96083239 Mar 11 03:32 chew-36-123458.drat
c parsing input formula with 102 variables and 272 clauses
c finished parsing
c detected empty clause; start verification via backward checking
c 272 of 272 clauses in core                            
c 474843 of 957243 lemmas in core using 3216708 resolution steps
c 0 RAT lemmas in core; 515 redundant literals in core lemmas
s VERIFIED
c verification time: 5.749 seconds
